NAME obj
ROWS
 N  OBJ
 G  R0      
 G  R1      
 G  R2      
 G  R3      
 G  R4      
 G  R5      
 G  R6      
 G  R7      
 G  R8      
 G  R9      
 G  R10     
 G  R11     
 G  R12     
 G  R13     
 G  R14     
 G  R15     
 G  R16     
 G  R17     
 G  R18     
 G  R19     
 G  R20     
 G  R21     
 G  R22     
 G  R23     
 G  R24     
 G  R25     
 G  R26     
 G  R27     
 G  R28     
 G  R29     
 G  R30     
 G  R31     
 G  R32     
 G  R33     
 G  R34     
 G  R35     
 G  R36     
 G  R37     
 G  R38     
 G  R39     
 G  R40     
 G  R41     
 G  R42     
 G  R43     
 G  R44     
 G  R45     
 G  R46     
 G  R47     
 G  R48     
 G  R49     
 G  R50     
 G  R51     
 G  R52     
 G  R53     
 G  R54     
 G  R55     
 G  R56     
 G  R57     
 G  R58     
 G  R59     
 G  R60     
 G  R61     
 G  R62     
 G  R63     
 G  R64     
 G  R65     
 G  R66     
 G  R67     
 G  R68     
 G  R69     
 G  R70     
 G  R71     
 G  R72     
 G  R73     
 G  R74     
 G  R75     
 G  R76     
 G  R77     
 G  R78     
 G  R79     
 G  R80     
COLUMNS
    X0        OBJ       1
    X0        R0        1
    X0        R1        1
    X0        R2        1
    X0        R3        1
    X0        R6        1
    X0        R9        1
    X0        R18       1
    X0        R27       1
    X0        R54       1
    X1        OBJ       1
    X1        R0        1
    X1        R1        1
    X1        R2        1
    X1        R4        1
    X1        R7        1
    X1        R10       1
    X1        R19       1
    X1        R28       1
    X1        R55       1
    X2        OBJ       1
    X2        R0        1
    X2        R1        1
    X2        R2        1
    X2        R5        1
    X2        R8        1
    X2        R11       1
    X2        R20       1
    X2        R29       1
    X2        R56       1
    X3        OBJ       1
    X3        R0        1
    X3        R3        1
    X3        R4        1
    X3        R5        1
    X3        R6        1
    X3        R12       1
    X3        R21       1
    X3        R30       1
    X3        R57       1
    X4        OBJ       1
    X4        R1        1
    X4        R3        1
    X4        R4        1
    X4        R5        1
    X4        R7        1
    X4        R13       1
    X4        R22       1
    X4        R31       1
    X4        R58       1
    X5        OBJ       1
    X5        R2        1
    X5        R3        1
    X5        R4        1
    X5        R5        1
    X5        R8        1
    X5        R14       1
    X5        R23       1
    X5        R32       1
    X5        R59       1
    X6        OBJ       1
    X6        R0        1
    X6        R3        1
    X6        R6        1
    X6        R7        1
    X6        R8        1
    X6        R15       1
    X6        R24       1
    X6        R33       1
    X6        R60       1
    X7        OBJ       1
    X7        R1        1
    X7        R4        1
    X7        R6        1
    X7        R7        1
    X7        R8        1
    X7        R16       1
    X7        R25       1
    X7        R34       1
    X7        R61       1
    X8        OBJ       1
    X8        R2        1
    X8        R5        1
    X8        R6        1
    X8        R7        1
    X8        R8        1
    X8        R17       1
    X8        R26       1
    X8        R35       1
    X8        R62       1
    X9        OBJ       1
    X9        R0        1
    X9        R9        1
    X9        R10       1
    X9        R11       1
    X9        R12       1
    X9        R15       1
    X9        R18       1
    X9        R36       1
    X9        R63       1
    X10       OBJ       1
    X10       R1        1
    X10       R9        1
    X10       R10       1
    X10       R11       1
    X10       R13       1
    X10       R16       1
    X10       R19       1
    X10       R37       1
    X10       R64       1
    X11       OBJ       1
    X11       R2        1
    X11       R9        1
    X11       R10       1
    X11       R11       1
    X11       R14       1
    X11       R17       1
    X11       R20       1
    X11       R38       1
    X11       R65       1
    X12       OBJ       1
    X12       R3        1
    X12       R9        1
    X12       R12       1
    X12       R13       1
    X12       R14       1
    X12       R15       1
    X12       R21       1
    X12       R39       1
    X12       R66       1
    X13       OBJ       1
    X13       R4        1
    X13       R10       1
    X13       R12       1
    X13       R13       1
    X13       R14       1
    X13       R16       1
    X13       R22       1
    X13       R40       1
    X13       R67       1
    X14       OBJ       1
    X14       R5        1
    X14       R11       1
    X14       R12       1
    X14       R13       1
    X14       R14       1
    X14       R17       1
    X14       R23       1
    X14       R41       1
    X14       R68       1
    X15       OBJ       1
    X15       R6        1
    X15       R9        1
    X15       R12       1
    X15       R15       1
    X15       R16       1
    X15       R17       1
    X15       R24       1
    X15       R42       1
    X15       R69       1
    X16       OBJ       1
    X16       R7        1
    X16       R10       1
    X16       R13       1
    X16       R15       1
    X16       R16       1
    X16       R17       1
    X16       R25       1
    X16       R43       1
    X16       R70       1
    X17       OBJ       1
    X17       R8        1
    X17       R11       1
    X17       R14       1
    X17       R15       1
    X17       R16       1
    X17       R17       1
    X17       R26       1
    X17       R44       1
    X17       R71       1
    X18       OBJ       1
    X18       R0        1
    X18       R9        1
    X18       R18       1
    X18       R19       1
    X18       R20       1
    X18       R21       1
    X18       R24       1
    X18       R45       1
    X18       R72       1
    X19       OBJ       1
    X19       R1        1
    X19       R10       1
    X19       R18       1
    X19       R19       1
    X19       R20       1
    X19       R22       1
    X19       R25       1
    X19       R46       1
    X19       R73       1
    X20       OBJ       1
    X20       R2        1
    X20       R11       1
    X20       R18       1
    X20       R19       1
    X20       R20       1
    X20       R23       1
    X20       R26       1
    X20       R47       1
    X20       R74       1
    X21       OBJ       1
    X21       R3        1
    X21       R12       1
    X21       R18       1
    X21       R21       1
    X21       R22       1
    X21       R23       1
    X21       R24       1
    X21       R48       1
    X21       R75       1
    X22       OBJ       1
    X22       R4        1
    X22       R13       1
    X22       R19       1
    X22       R21       1
    X22       R22       1
    X22       R23       1
    X22       R25       1
    X22       R49       1
    X22       R76       1
    X23       OBJ       1
    X23       R5        1
    X23       R14       1
    X23       R20       1
    X23       R21       1
    X23       R22       1
    X23       R23       1
    X23       R26       1
    X23       R50       1
    X23       R77       1
    X24       OBJ       1
    X24       R6        1
    X24       R15       1
    X24       R18       1
    X24       R21       1
    X24       R24       1
    X24       R25       1
    X24       R26       1
    X24       R51       1
    X24       R78       1
    X25       OBJ       1
    X25       R7        1
    X25       R16       1
    X25       R19       1
    X25       R22       1
    X25       R24       1
    X25       R25       1
    X25       R26       1
    X25       R52       1
    X25       R79       1
    X26       OBJ       1
    X26       R8        1
    X26       R17       1
    X26       R20       1
    X26       R23       1
    X26       R24       1
    X26       R25       1
    X26       R26       1
    X26       R53       1
    X26       R80       1
    X27       OBJ       1
    X27       R0        1
    X27       R27       1
    X27       R28       1
    X27       R29       1
    X27       R30       1
    X27       R33       1
    X27       R36       1
    X27       R45       1
    X27       R54       1
    X28       OBJ       1
    X28       R1        1
    X28       R27       1
    X28       R28       1
    X28       R29       1
    X28       R31       1
    X28       R34       1
    X28       R37       1
    X28       R46       1
    X28       R55       1
    X29       OBJ       1
    X29       R2        1
    X29       R27       1
    X29       R28       1
    X29       R29       1
    X29       R32       1
    X29       R35       1
    X29       R38       1
    X29       R47       1
    X29       R56       1
    X30       OBJ       1
    X30       R3        1
    X30       R27       1
    X30       R30       1
    X30       R31       1
    X30       R32       1
    X30       R33       1
    X30       R39       1
    X30       R48       1
    X30       R57       1
    X31       OBJ       1
    X31       R4        1
    X31       R28       1
    X31       R30       1
    X31       R31       1
    X31       R32       1
    X31       R34       1
    X31       R40       1
    X31       R49       1
    X31       R58       1
    X32       OBJ       1
    X32       R5        1
    X32       R29       1
    X32       R30       1
    X32       R31       1
    X32       R32       1
    X32       R35       1
    X32       R41       1
    X32       R50       1
    X32       R59       1
    X33       OBJ       1
    X33       R6        1
    X33       R27       1
    X33       R30       1
    X33       R33       1
    X33       R34       1
    X33       R35       1
    X33       R42       1
    X33       R51       1
    X33       R60       1
    X34       OBJ       1
    X34       R7        1
    X34       R28       1
    X34       R31       1
    X34       R33       1
    X34       R34       1
    X34       R35       1
    X34       R43       1
    X34       R52       1
    X34       R61       1
    X35       OBJ       1
    X35       R8        1
    X35       R29       1
    X35       R32       1
    X35       R33       1
    X35       R34       1
    X35       R35       1
    X35       R44       1
    X35       R53       1
    X35       R62       1
    X36       OBJ       1
    X36       R9        1
    X36       R27       1
    X36       R36       1
    X36       R37       1
    X36       R38       1
    X36       R39       1
    X36       R42       1
    X36       R45       1
    X36       R63       1
    X37       OBJ       1
    X37       R10       1
    X37       R28       1
    X37       R36       1
    X37       R37       1
    X37       R38       1
    X37       R40       1
    X37       R43       1
    X37       R46       1
    X37       R64       1
    X38       OBJ       1
    X38       R11       1
    X38       R29       1
    X38       R36       1
    X38       R37       1
    X38       R38       1
    X38       R41       1
    X38       R44       1
    X38       R47       1
    X38       R65       1
    X39       OBJ       1
    X39       R12       1
    X39       R30       1
    X39       R36       1
    X39       R39       1
    X39       R40       1
    X39       R41       1
    X39       R42       1
    X39       R48       1
    X39       R66       1
    X40       OBJ       1
    X40       R13       1
    X40       R31       1
    X40       R37       1
    X40       R39       1
    X40       R40       1
    X40       R41       1
    X40       R43       1
    X40       R49       1
    X40       R67       1
    X41       OBJ       1
    X41       R14       1
    X41       R32       1
    X41       R38       1
    X41       R39       1
    X41       R40       1
    X41       R41       1
    X41       R44       1
    X41       R50       1
    X41       R68       1
    X42       OBJ       1
    X42       R15       1
    X42       R33       1
    X42       R36       1
    X42       R39       1
    X42       R42       1
    X42       R43       1
    X42       R44       1
    X42       R51       1
    X42       R69       1
    X43       OBJ       1
    X43       R16       1
    X43       R34       1
    X43       R37       1
    X43       R40       1
    X43       R42       1
    X43       R43       1
    X43       R44       1
    X43       R52       1
    X43       R70       1
    X44       OBJ       1
    X44       R17       1
    X44       R35       1
    X44       R38       1
    X44       R41       1
    X44       R42       1
    X44       R43       1
    X44       R44       1
    X44       R53       1
    X44       R71       1
    X45       OBJ       1
    X45       R18       1
    X45       R27       1
    X45       R36       1
    X45       R45       1
    X45       R46       1
    X45       R47       1
    X45       R48       1
    X45       R51       1
    X45       R72       1
    X46       OBJ       1
    X46       R19       1
    X46       R28       1
    X46       R37       1
    X46       R45       1
    X46       R46       1
    X46       R47       1
    X46       R49       1
    X46       R52       1
    X46       R73       1
    X47       OBJ       1
    X47       R20       1
    X47       R29       1
    X47       R38       1
    X47       R45       1
    X47       R46       1
    X47       R47       1
    X47       R50       1
    X47       R53       1
    X47       R74       1
    X48       OBJ       1
    X48       R21       1
    X48       R30       1
    X48       R39       1
    X48       R45       1
    X48       R48       1
    X48       R49       1
    X48       R50       1
    X48       R51       1
    X48       R75       1
    X49       OBJ       1
    X49       R22       1
    X49       R31       1
    X49       R40       1
    X49       R46       1
    X49       R48       1
    X49       R49       1
    X49       R50       1
    X49       R52       1
    X49       R76       1
    X50       OBJ       1
    X50       R23       1
    X50       R32       1
    X50       R41       1
    X50       R47       1
    X50       R48       1
    X50       R49       1
    X50       R50       1
    X50       R53       1
    X50       R77       1
    X51       OBJ       1
    X51       R24       1
    X51       R33       1
    X51       R42       1
    X51       R45       1
    X51       R48       1
    X51       R51       1
    X51       R52       1
    X51       R53       1
    X51       R78       1
    X52       OBJ       1
    X52       R25       1
    X52       R34       1
    X52       R43       1
    X52       R46       1
    X52       R49       1
    X52       R51       1
    X52       R52       1
    X52       R53       1
    X52       R79       1
    X53       OBJ       1
    X53       R26       1
    X53       R35       1
    X53       R44       1
    X53       R47       1
    X53       R50       1
    X53       R51       1
    X53       R52       1
    X53       R53       1
    X53       R80       1
    X54       OBJ       1
    X54       R0        1
    X54       R27       1
    X54       R54       1
    X54       R55       1
    X54       R56       1
    X54       R57       1
    X54       R60       1
    X54       R63       1
    X54       R72       1
    X55       OBJ       1
    X55       R1        1
    X55       R28       1
    X55       R54       1
    X55       R55       1
    X55       R56       1
    X55       R58       1
    X55       R61       1
    X55       R64       1
    X55       R73       1
    X56       OBJ       1
    X56       R2        1
    X56       R29       1
    X56       R54       1
    X56       R55       1
    X56       R56       1
    X56       R59       1
    X56       R62       1
    X56       R65       1
    X56       R74       1
    X57       OBJ       1
    X57       R3        1
    X57       R30       1
    X57       R54       1
    X57       R57       1
    X57       R58       1
    X57       R59       1
    X57       R60       1
    X57       R66       1
    X57       R75       1
    X58       OBJ       1
    X58       R4        1
    X58       R31       1
    X58       R55       1
    X58       R57       1
    X58       R58       1
    X58       R59       1
    X58       R61       1
    X58       R67       1
    X58       R76       1
    X59       OBJ       1
    X59       R5        1
    X59       R32       1
    X59       R56       1
    X59       R57       1
    X59       R58       1
    X59       R59       1
    X59       R62       1
    X59       R68       1
    X59       R77       1
    X60       OBJ       1
    X60       R6        1
    X60       R33       1
    X60       R54       1
    X60       R57       1
    X60       R60       1
    X60       R61       1
    X60       R62       1
    X60       R69       1
    X60       R78       1
    X61       OBJ       1
    X61       R7        1
    X61       R34       1
    X61       R55       1
    X61       R58       1
    X61       R60       1
    X61       R61       1
    X61       R62       1
    X61       R70       1
    X61       R79       1
    X62       OBJ       1
    X62       R8        1
    X62       R35       1
    X62       R56       1
    X62       R59       1
    X62       R60       1
    X62       R61       1
    X62       R62       1
    X62       R71       1
    X62       R80       1
    X63       OBJ       1
    X63       R9        1
    X63       R36       1
    X63       R54       1
    X63       R63       1
    X63       R64       1
    X63       R65       1
    X63       R66       1
    X63       R69       1
    X63       R72       1
    X64       OBJ       1
    X64       R10       1
    X64       R37       1
    X64       R55       1
    X64       R63       1
    X64       R64       1
    X64       R65       1
    X64       R67       1
    X64       R70       1
    X64       R73       1
    X65       OBJ       1
    X65       R11       1
    X65       R38       1
    X65       R56       1
    X65       R63       1
    X65       R64       1
    X65       R65       1
    X65       R68       1
    X65       R71       1
    X65       R74       1
    X66       OBJ       1
    X66       R12       1
    X66       R39       1
    X66       R57       1
    X66       R63       1
    X66       R66       1
    X66       R67       1
    X66       R68       1
    X66       R69       1
    X66       R75       1
    X67       OBJ       1
    X67       R13       1
    X67       R40       1
    X67       R58       1
    X67       R64       1
    X67       R66       1
    X67       R67       1
    X67       R68       1
    X67       R70       1
    X67       R76       1
    X68       OBJ       1
    X68       R14       1
    X68       R41       1
    X68       R59       1
    X68       R65       1
    X68       R66       1
    X68       R67       1
    X68       R68       1
    X68       R71       1
    X68       R77       1
    X69       OBJ       1
    X69       R15       1
    X69       R42       1
    X69       R60       1
    X69       R63       1
    X69       R66       1
    X69       R69       1
    X69       R70       1
    X69       R71       1
    X69       R78       1
    X70       OBJ       1
    X70       R16       1
    X70       R43       1
    X70       R61       1
    X70       R64       1
    X70       R67       1
    X70       R69       1
    X70       R70       1
    X70       R71       1
    X70       R79       1
    X71       OBJ       1
    X71       R17       1
    X71       R44       1
    X71       R62       1
    X71       R65       1
    X71       R68       1
    X71       R69       1
    X71       R70       1
    X71       R71       1
    X71       R80       1
    X72       OBJ       1
    X72       R18       1
    X72       R45       1
    X72       R54       1
    X72       R63       1
    X72       R72       1
    X72       R73       1
    X72       R74       1
    X72       R75       1
    X72       R78       1
    X73       OBJ       1
    X73       R19       1
    X73       R46       1
    X73       R55       1
    X73       R64       1
    X73       R72       1
    X73       R73       1
    X73       R74       1
    X73       R76       1
    X73       R79       1
    X74       OBJ       1
    X74       R20       1
    X74       R47       1
    X74       R56       1
    X74       R65       1
    X74       R72       1
    X74       R73       1
    X74       R74       1
    X74       R77       1
    X74       R80       1
    X75       OBJ       1
    X75       R21       1
    X75       R48       1
    X75       R57       1
    X75       R66       1
    X75       R72       1
    X75       R75       1
    X75       R76       1
    X75       R77       1
    X75       R78       1
    X76       OBJ       1
    X76       R22       1
    X76       R49       1
    X76       R58       1
    X76       R67       1
    X76       R73       1
    X76       R75       1
    X76       R76       1
    X76       R77       1
    X76       R79       1
    X77       OBJ       1
    X77       R23       1
    X77       R50       1
    X77       R59       1
    X77       R68       1
    X77       R74       1
    X77       R75       1
    X77       R76       1
    X77       R77       1
    X77       R80       1
    X78       OBJ       1
    X78       R24       1
    X78       R51       1
    X78       R60       1
    X78       R69       1
    X78       R72       1
    X78       R75       1
    X78       R78       1
    X78       R79       1
    X78       R80       1
    X79       OBJ       1
    X79       R25       1
    X79       R52       1
    X79       R61       1
    X79       R70       1
    X79       R73       1
    X79       R76       1
    X79       R78       1
    X79       R79       1
    X79       R80       1
    X80       OBJ       1
    X80       R26       1
    X80       R53       1
    X80       R62       1
    X80       R71       1
    X80       R74       1
    X80       R77       1
    X80       R78       1
    X80       R79       1
    X80       R80       1
RHS
    RHS1      R0        1
    RHS1      R1        1
    RHS1      R2        1
    RHS1      R3        1
    RHS1      R4        1
    RHS1      R5        1
    RHS1      R6        1
    RHS1      R7        1
    RHS1      R8        1
    RHS1      R9        1
    RHS1      R10       1
    RHS1      R11       1
    RHS1      R12       1
    RHS1      R13       1
    RHS1      R14       1
    RHS1      R15       1
    RHS1      R16       1
    RHS1      R17       1
    RHS1      R18       1
    RHS1      R19       1
    RHS1      R20       1
    RHS1      R21       1
    RHS1      R22       1
    RHS1      R23       1
    RHS1      R24       1
    RHS1      R25       1
    RHS1      R26       1
    RHS1      R27       1
    RHS1      R28       1
    RHS1      R29       1
    RHS1      R30       1
    RHS1      R31       1
    RHS1      R32       1
    RHS1      R33       1
    RHS1      R34       1
    RHS1      R35       1
    RHS1      R36       1
    RHS1      R37       1
    RHS1      R38       1
    RHS1      R39       1
    RHS1      R40       1
    RHS1      R41       1
    RHS1      R42       1
    RHS1      R43       1
    RHS1      R44       1
    RHS1      R45       1
    RHS1      R46       1
    RHS1      R47       1
    RHS1      R48       1
    RHS1      R49       1
    RHS1      R50       1
    RHS1      R51       1
    RHS1      R52       1
    RHS1      R53       1
    RHS1      R54       1
    RHS1      R55       1
    RHS1      R56       1
    RHS1      R57       1
    RHS1      R58       1
    RHS1      R59       1
    RHS1      R60       1
    RHS1      R61       1
    RHS1      R62       1
    RHS1      R63       1
    RHS1      R64       1
    RHS1      R65       1
    RHS1      R66       1
    RHS1      R67       1
    RHS1      R68       1
    RHS1      R69       1
    RHS1      R70       1
    RHS1      R71       1
    RHS1      R72       1
    RHS1      R73       1
    RHS1      R74       1
    RHS1      R75       1
    RHS1      R76       1
    RHS1      R77       1
    RHS1      R78       1
    RHS1      R79       1
    RHS1      R80       1
BOUNDS
 UP BND1      X0        1
 UP BND1      X1        1
 UP BND1      X2        1
 UP BND1      X3        1
 UP BND1      X4        1
 UP BND1      X5        1
 UP BND1      X6        1
 UP BND1      X7        1
 UP BND1      X8        1
 UP BND1      X9        1
 UP BND1      X10       1
 UP BND1      X11       1
 UP BND1      X12       1
 UP BND1      X13       1
 UP BND1      X14       1
 UP BND1      X15       1
 UP BND1      X16       1
 UP BND1      X17       1
 UP BND1      X18       1
 UP BND1      X19       1
 UP BND1      X20       1
 UP BND1      X21       1
 UP BND1      X22       1
 UP BND1      X23       1
 UP BND1      X24       1
 UP BND1      X25       1
 UP BND1      X26       1
 UP BND1      X27       1
 UP BND1      X28       1
 UP BND1      X29       1
 UP BND1      X30       1
 UP BND1      X31       1
 UP BND1      X32       1
 UP BND1      X33       1
 UP BND1      X34       1
 UP BND1      X35       1
 UP BND1      X36       1
 UP BND1      X37       1
 UP BND1      X38       1
 UP BND1      X39       1
 UP BND1      X40       1
 UP BND1      X41       1
 UP BND1      X42       1
 UP BND1      X43       1
 UP BND1      X44       1
 UP BND1      X45       1
 UP BND1      X46       1
 UP BND1      X47       1
 UP BND1      X48       1
 UP BND1      X49       1
 UP BND1      X50       1
 UP BND1      X51       1
 UP BND1      X52       1
 UP BND1      X53       1
 UP BND1      X54       1
 UP BND1      X55       1
 UP BND1      X56       1
 UP BND1      X57       1
 UP BND1      X58       1
 UP BND1      X59       1
 UP BND1      X60       1
 UP BND1      X61       1
 UP BND1      X62       1
 UP BND1      X63       1
 UP BND1      X64       1
 UP BND1      X65       1
 UP BND1      X66       1
 UP BND1      X67       1
 UP BND1      X68       1
 UP BND1      X69       1
 UP BND1      X70       1
 UP BND1      X71       1
 UP BND1      X72       1
 UP BND1      X73       1
 UP BND1      X74       1
 UP BND1      X75       1
 UP BND1      X76       1
 UP BND1      X77       1
 UP BND1      X78       1
 UP BND1      X79       1
 UP BND1      X80       1
ENDATA
